60 
300 
10.5 14.4 0 0
11.2 14.1 0 -22
18 15.9 -10 -77
18.3 13.3 10 -15
16.5 9.3 10 -12
15.4 11 10 -24
14.9 13.2 5 -13
16.3 13.3 5 -28
16.4 17.8 5 -23
15 17.9 5 -21
16.1 19.6 -10 -81
15.7 20.6 -10 -136
13.2 20.1 -10 -117
14.3 15.3 5 -29
14 5.1 10 -13
11.4 6.7 15 -25
8.3 5 -15 -109
7.9 9.8 10 -29
11.4 12 -5 -62
11.2 17.6 5 -28
10.1 18.7 -5 -111
11.7 20.3 -10 -132
10.2 22.1 -10 -113
9.7 23.8 10 -19
10.1 26.4 -15 -90
7.4 24 15 -28
8.2 19.9 15 -19
8.7 17.7 -10 -77
8.9 13.6 -10 -85
5.6 11.1 10 -24
4.9 18.9 10 -13
7.3 18.8 10 -29
